Solver command line: ['C:\\Program Files\\IBM\\ILOG\\CPLEX_Studio2211\\cplex\\bin\\x64_win64\\cplex.exe']


Welcome to IBM(R) ILOG(R) CPLEX(R) Interactive Optimizer 22.1.1.0
  with Simplex, Mixed Integer & Barrier Optimizers
5725-A06 5725-A29 5724-Y48 5724-Y49 5724-Y54 5724-Y55 5655-Y21
Copyright IBM Corp. 1988, 2022.  All Rights Reserved.

Type 'help' for a list of available commands.
Type 'help' followed by a command name for more
information on commands.

CPLEX> Logfile 'cplex.log' closed.
Logfile 'C:\Users\wangy\Documents\GitHub\re_optimization\result_site_specific\tmppy29_ozq.cplex.log' open.
CPLEX> Problem 'C:\Users\wangy\Documents\GitHub\re_optimization\result_site_specific\tmp05_h756o.pyomo.lp' read.
Read time = 0.39 sec. (9.13 ticks)
CPLEX> Problem name         : C:\Users\wangy\Documents\GitHub\re_optimization\result_site_specific\tmp05_h756o.pyomo.lp
Objective sense      : Minimize
Variables            :   65769  [Nneg: 35068,  Free: 8792,  Binary: 9,
                                 Other: 21900]
Objective nonzeros   :      17
Linear constraints   :   87665  [Less: 46741,  Greater: 5,  Equal: 40919]
  Nonzeros           :  225081
  RHS nonzeros       :    3651

Variables            : Min LB: 0.000000         Max UB: 1.000000       
Objective nonzeros   : Min   : 1.000000         Max   : 1.000000       
Linear constraints   :
  Nonzeros           : Min   : 0.001858115      Max   : 100000.0       
  RHS nonzeros       : Min   : 0.2350000        Max   : 100000.0       
CPLEX> Version identifier: 22.1.1.0 | 2022-11-27 | 9160aff4d
Tried aggregator 3 times.
MIP Presolve eliminated 53130 rows and 32687 columns.
Aggregator did 10708 substitutions.
Reduced MIP has 23827 rows, 22374 columns, and 71597 nonzeros.
Reduced MIP has 5 binaries, 0 generals, 0 SOSs, and 0 indicators.
Presolve time = 0.24 sec. (226.84 ticks)
Found incumbent of value 223368.616943 after 0.34 sec. (323.08 ticks)
Probing time = 0.02 sec. (1.24 ticks)
Tried aggregator 1 time.
Detecting symmetries...
Reduced MIP has 23827 rows, 22374 columns, and 71597 nonzeros.
Reduced MIP has 5 binaries, 0 generals, 0 SOSs, and 0 indicators.
Presolve time = 0.05 sec. (46.05 ticks)
Probing time = 0.01 sec. (1.16 ticks)
MIP emphasis: balance optimality and feasibility.
MIP search method: dynamic search.
Parallel mode: deterministic, using up to 16 threads.
Root relaxation solution time = 2.11 sec. (935.77 ticks)

        Nodes                                         Cuts/
   Node  Left     Objective  IInf  Best Integer    Best Bound    ItCnt     Gap

*     0+    0                       223368.6169   -11924.8338           105.34%
      0     0     6153.7409     1   223368.6169     6153.7409       76   97.25%
*     0+    0                         7758.3823     6153.7409            20.68%
*     0+    0                         6866.7695     6153.7409            10.38%
      0     0        cutoff           6866.7695                    829    0.00%
Elapsed time = 3.05 sec. (1835.43 ticks, tree = 0.01 MB, solutions = 3)

Root node processing (before b&c):
  Real time             =    3.06 sec. (1838.60 ticks)
Parallel b&c, 16 threads:
  Real time             =    0.00 sec. (0.00 ticks)
  Sync time (average)   =    0.00 sec.
  Wait time (average)   =    0.00 sec.
                          ------------
Total (root+branch&cut) =    3.06 sec. (1838.60 ticks)

Solution pool: 3 solutions saved.

MIP - Integer optimal solution:  Objective =  6.8667694530e+03
Solution time =    3.06 sec.  Iterations = 829  Nodes = 0
Deterministic time = 1838.79 ticks  (600.52 ticks/sec)

CPLEX> Incumbent solution written to file 'C:\Users\wangy\Documents\GitHub\re_optimization\result_site_specific\tmplx8e9u2c.cplex.sol'.
CPLEX> 
